RT is False
Default write of storage_offers_DA.csv just to have a file (but constraint should be inactive)
Reading model...
...model read.
creating competitive generators file...
...competitive generators recorded.
Loading data...
.. day-ahead data read.
Compiling instance...
...instance created.
Creating Offer Mitigation (model will solve as dispatch if TRUE)...
NOTE: storage offers will not be mitigated
...storage offer mitigation file created
Converting model to MPEC...
...converted
NOTE: initial MIP solve with only storage competitive to get feasible solution
Solving...

Welcome to IBM(R) ILOG(R) CPLEX(R) Interactive Optimizer 12.9.0.0
  with Simplex, Mixed Integer & Barrier Optimizers
5725-A06 5725-A29 5724-Y48 5724-Y49 5724-Y54 5724-Y55 5655-Y21
Copyright IBM Corp. 1988, 2019.  All Rights Reserved.

Type 'help' for a list of available commands.
Type 'help' followed by a command name for more
information on commands.

CPLEX> Logfile 'cplex.log' closed.
Logfile 'C:\Users\llavin\Desktop\test919\logs\tmphmb95djk.cplex.log' open.
CPLEX> New value for parallel optimization mode: -1
CPLEX> New value for mixed integer optimality gap tolerance: 0.01
CPLEX> New value for integrality tolerance: 1e-09
CPLEX> New value for feasibility tolerance: 0.01
CPLEX> New value for deterministic time limit in ticks: 75000
CPLEX> Problem 'C:\Users\llavin\Desktop\test919\logs\tmpediwyfs2.pyomo.lp' read.
Read time = 0.25 sec. (14.73 ticks)
CPLEX> Problem name         : C:\Users\llavin\Desktop\test919\logs\tmpediwyfs2.pyomo.lp
Objective sense      : Maximize
Variables            :   53805  [Nneg: 1,  Box: 22000,  Free: 4464,
                                 Binary: 27340]
Objective nonzeros   :    9125
Linear constraints   :  123205  [Less: 41346,  Greater: 59096,  Equal: 22763]
  Nonzeros           :  291849
  RHS nonzeros       :   67587

Variables            : Min LB: -5000.000        Max UB: 1000000.       
Objective nonzeros   : Min   : 0.1000000        Max   : 2500.000       
Linear constraints   :
  Nonzeros           : Min   : 0.1000000        Max   : 1000000.       
  RHS nonzeros       : Min   : 0.1000000        Max   : 1000000.       
CPLEX> CPXPARAM_Parallel                                -1
CPXPARAM_Simplex_Tolerances_Feasibility          0.01
CPXPARAM_DetTimeLimit                            75000
CPXPARAM_MIP_Tolerances_MIPGap                   0.01
CPXPARAM_MIP_Tolerances_Integrality              1.0000000000000001e-09
Tried aggregator 3 times.
MIP Presolve eliminated 88165 rows and 18567 columns.
MIP Presolve added 3476 rows and 0 columns.
MIP Presolve modified 25029 coefficients.
Aggregator did 12999 substitutions.
Reduced MIP has 25517 rows, 21761 columns, and 72581 nonzeros.
Reduced MIP has 8612 binaries, 0 generals, 0 SOSs, and 0 indicators.
Presolve time = 0.28 sec. (173.99 ticks)
Probing fixed 398 vars, tightened 2930 bounds.
Probing time = 1.30 sec. (933.71 ticks)
Tried aggregator 2 times.
MIP Presolve eliminated 896 rows and 796 columns.
MIP Presolve modified 2309 coefficients.
Aggregator did 43 substitutions.
Reduced MIP has 24578 rows, 20922 columns, and 69864 nonzeros.
Reduced MIP has 8214 binaries, 0 generals, 0 SOSs, and 0 indicators.
Presolve time = 0.09 sec. (73.10 ticks)
Probing time = 0.05 sec. (16.13 ticks)
Clique table members: 6572.
MIP emphasis: balance optimality and feasibility.
MIP search method: dynamic search.
Parallel mode: opportunistic, using up to 32 threads.
Root relaxation solution time = 0.39 sec. (297.70 ticks)

        Nodes                                         Cuts/
   Node  Left     Objective  IInf  Best Integer    Best Bound    ItCnt     Gap

      0     0     3963.3785  1794                   3963.3785     6705         
      0     0     3963.3785     7                 Flowcuts: 6     6706         
      0     0     3963.3785     6                 Flowcuts: 6     6707         
      0     0     3963.3785     5                 Flowcuts: 6     6708         
      0     2     3963.3785     5                   3963.3785     6708         
Elapsed time = 8.03 sec. (4999.88 ticks, tree = 0.02 MB, solutions = 4)
*     4+    1                         3963.0208     3963.3785             0.01%

Flow cuts applied:  3

Root node processing (before b&c):
  Real time             =    7.33 sec. (4968.17 ticks)
Parallel b&c, 32 threads:
  Real time             =    0.81 sec. (65.56 ticks)
  Sync time (average)   =    0.16 sec.
  Wait time (average)   =    0.00 sec.
                          ------------
Total (root+branch&cut) =    8.14 sec. (5033.74 ticks)

Solution pool: 4 solutions saved.

MIP - Integer optimal, tolerance (0.01/1e-06):  Objective =  3.9630207900e+03
Current MIP best bound =  3.9633785023e+03 (gap = 0.357712, 0.01%)
Solution time =    8.16 sec.  Iterations = 6727  Nodes = 5 (3)
Deterministic time = 5033.89 ticks  (617.20 ticks/sec)

CPLEX> Incumbent solution written to file 'C:\Users\llavin\Desktop\test919\logs\tmph9cdbw97.cplex.sol'.
CPLEX> NOTE: no warmstart specified for MIP iteration, default behavior is true
NOTE: resolving with all competitive generators using storage-only solution to warmstart
Solving...

Welcome to IBM(R) ILOG(R) CPLEX(R) Interactive Optimizer 12.9.0.0
  with Simplex, Mixed Integer & Barrier Optimizers
5725-A06 5725-A29 5724-Y48 5724-Y49 5724-Y54 5724-Y55 5655-Y21
Copyright IBM Corp. 1988, 2019.  All Rights Reserved.

Type 'help' for a list of available commands.
Type 'help' followed by a command name for more
information on commands.

CPLEX> Logfile 'cplex.log' closed.
Logfile 'C:\Users\llavin\Desktop\test919\logs\tmphw0ffd_2.cplex.log' open.
CPLEX> New value for parallel optimization mode: -1
CPLEX> New value for mixed integer optimality gap tolerance: 0.01
CPLEX> New value for integrality tolerance: 1e-09
CPLEX> New value for feasibility tolerance: 0.01
CPLEX> New value for deterministic time limit in ticks: 75000
CPLEX> Problem 'C:\Users\llavin\Desktop\test919\logs\tmp5_4seu46.pyomo.lp' read.
Read time = 0.23 sec. (14.75 ticks)
CPLEX> MIP start file 'C:\Users\llavin\Desktop\test919\logs\tmp08bvbs03.cplex.mst' read.
CPLEX> Problem name         : C:\Users\llavin\Desktop\test919\logs\tmp5_4seu46.pyomo.lp
Objective sense      : Maximize
Variables            :   54525  [Nneg: 1,  Box: 22720,  Free: 4464,
                                 Binary: 27340]
Objective nonzeros   :    9823
Linear constraints   :  123205  [Less: 41346,  Greater: 59096,  Equal: 22763]
  Nonzeros           :  291849
  RHS nonzeros       :   67587

Variables            : Min LB: -5000.000        Max UB: 1000000.       
Objective nonzeros   : Min   : 0.1000000        Max   : 2500.000       
Linear constraints   :
  Nonzeros           : Min   : 0.1000000        Max   : 1000000.       
  RHS nonzeros       : Min   : 0.1000000        Max   : 1000000.       
CPLEX> CPXPARAM_Parallel                                -1
CPXPARAM_Simplex_Tolerances_Feasibility          0.01
CPXPARAM_DetTimeLimit                            75000
CPXPARAM_MIP_Tolerances_MIPGap                   0.01
CPXPARAM_MIP_Tolerances_Integrality              1.0000000000000001e-09
Warning:  No solution found from 1 MIP starts.
Retaining values of one MIP start for possible repair.
Tried aggregator 3 times.
MIP Presolve eliminated 88165 rows and 19287 columns.
MIP Presolve added 3476 rows and 0 columns.
MIP Presolve modified 25029 coefficients.
Aggregator did 12999 substitutions.
Reduced MIP has 25517 rows, 21761 columns, and 72581 nonzeros.
Reduced MIP has 8612 binaries, 0 generals, 0 SOSs, and 0 indicators.
Presolve time = 0.30 sec. (174.35 ticks)
Probing fixed 398 vars, tightened 2930 bounds.
Probing time = 1.30 sec. (933.71 ticks)
Tried aggregator 2 times.
MIP Presolve eliminated 896 rows and 796 columns.
MIP Presolve modified 2309 coefficients.
Aggregator did 43 substitutions.
Reduced MIP has 24578 rows, 20922 columns, and 69864 nonzeros.
Reduced MIP has 8214 binaries, 0 generals, 0 SOSs, and 0 indicators.
Presolve time = 0.09 sec. (73.11 ticks)
Probing time = 0.05 sec. (16.13 ticks)
Clique table members: 6572.
MIP emphasis: balance optimality and feasibility.
MIP search method: dynamic search.
Parallel mode: opportunistic, using up to 32 threads.
Root relaxation solution time = 0.39 sec. (301.74 ticks)

        Nodes                                         Cuts/
   Node  Left     Objective  IInf  Best Integer    Best Bound    ItCnt     Gap

      0     0    77915.2037  1827                  77915.2037     6882         
      0     0    77531.5199   676                   Cuts: 845     7272         
      0     0    77301.2927   530                   Cuts: 501     7531         
      0     0    77266.1538   454                   Cuts: 332     7715         
      0     0    77204.9131   401                   Cuts: 228     7841         
      0     0    77204.9131   365                   Cuts: 160     7908         
      0     0    77204.9131   350                    Cuts: 92     7936         
      0     0    77204.9131   338                   Cuts: 122     7970         
      0     0    77204.9131   332                    Cuts: 72     8003         
      0     0    77204.9131   335                    Cuts: 67     8030         
Repair heuristic found nothing.
      0     2    77204.9131   335                    Cuts: 31     8030         
Elapsed time = 12.27 sec. (7022.77 ticks, tree = 0.02 MB, solutions = 0)
    414   141    73896.8706   281                  75066.6471    10305         
    853   481    73910.5873   251                  75030.6038    12290         
   1329   767    64587.7790   227                  75030.6038    15287         
   1806   959    61821.2386   200                  75030.6038    19126         
   2307  1487    59195.8925   198                  75030.6038    25979         
   2943  2105    42425.8247   165                  75030.6038    31401         
   3856  2269    64547.5564   130                  75030.6038    31982         
   4709  3615    42019.5692   139                  75030.6038    35979         
   5434  4618    15651.4277   124                  75030.6038    38422         
*  5908  4434      integral     0    64124.8567    75030.6038    37695   17.01%
Elapsed time = 24.20 sec. (9435.63 ticks, tree = 33.64 MB, solutions = 2)
   5967  1661    infeasible          64124.8567    75030.6038    54025   17.01%
   7140    71    64687.6860   107    64124.8567    75030.6038    55391   17.01%
   7573   688    70631.5650   105    64124.8567    75030.6038    69057   17.01%
   9861  1906    65222.9461   133    64124.8567    74609.3355    96874   16.35%
  12638  2578    66604.0157   114    64124.8567    72016.0490   133287   12.31%
  15263  2208    66437.4229    92    64124.8567    68815.1932   157202    7.31%
  17727  3471    67804.1085    95    64925.6453    68527.6707   165179    5.55%
  19544  3542        cutoff          64925.6453    68527.6707   165393    5.55%
  20576  3686    64829.9060    33    65637.1359    68527.6707   166354    4.40%
  21389  3614    65560.5155    43    65637.1359    68522.8796   166074    4.40%
Elapsed time = 73.14 sec. (23118.75 ticks, tree = 35.22 MB, solutions = 10)
  22131  4014    64596.7710    25    65637.1359    68522.8796   167560    4.40%
* 22701  2269      integral     0    67469.2673    68522.8796   170247    1.56%
  23278  2055    67153.3926    78    67469.2673    68475.0274   186706    1.49%
  23653  1867    67006.1876    31    67469.2673    68475.0274   181202    1.49%
  24025  2335    67214.0449    68    67469.2673    68475.0274   189970    1.49%
  24190  1963    68350.9289   105    67469.2673    68475.0274   187473    1.49%
* 24315  2026      integral     0    68274.2583    68475.0274   187952    0.29%
  24387  2205        cutoff          68274.2583    68475.0274   189403    0.29%

Clique cuts applied:  9
Cover cuts applied:  9
Implied bound cuts applied:  82
Flow cuts applied:  407
Mixed integer rounding cuts applied:  35
Gomory fractional cuts applied:  66

Root node processing (before b&c):
  Real time             =   10.22 sec. (6972.66 ticks)
Parallel b&c, 32 threads:
  Real time             =   68.50 sec. (23356.77 ticks)
  Sync time (average)   =    1.96 sec.
  Wait time (average)   =    0.24 sec.
                          ------------
Total (root+branch&cut) =   78.72 sec. (30329.43 ticks)

Solution pool: 10 solutions saved.

MIP - Integer optimal, tolerance (0.01/1e-06):  Objective =  6.8274258265e+04
Current MIP best bound =  6.8475027361e+04 (gap = 200.769, 0.29%)
Solution time =   78.75 sec.  Iterations = 203334  Nodes = 24389 (122)
Deterministic time = 30329.59 ticks  (385.14 ticks/sec)

CPLEX> Incumbent solution written to file 'C:\Users\llavin\Desktop\test919\logs\tmpasbh84hu.cplex.sol'.
CPLEX> Exporting results... 
